NAME : sample17
COMMENT : Sample dataset with 17 nodes
COMMENT : Derived from Zainab
TYPE : TSP
DIMENSION : 17
EDGE_WEIGHT_TYPE : EUC_2D
NODE_COORD_SECTION
1 123.456 234.567
2 345.678 456.789
3 567.890 678.901
4 789.012 890.123
5 901.234 123.456
6 234.567 345.678
7 456.789 567.890
8 678.901 789.012
9 890.123 901.234
10 345.678 234.567
11 567.890 456.789
12 789.012 678.901
13 901.234 890.123
14 234.567 123.456
15 456.789 345.678
16 678.901 567.890
17 890.123 789.012
EOF
